/*********************************************
 * OPL 12.6.1.0 Data
 * Author: jje11
 * Creation Date: 17 Nov 2017 at 16:25:11
 *********************************************/
 NumNodes = 6;
 Demand = [5000, 2000, 0, 
			-1000, -4000, -2000];